db/data/1486122014611430502463096952281625861.z3.out
-------------------
2500.256347538
